p tw 61 66
1 2
2 13
3 4
4 5
4 21
5 53
6 7
7 8
8 9
9 10
10 11
11 12
12 14
13 24
14 15
15 16
16 17
17 18
18 19
18 34
19 20
20 21
21 22
22 23
23 25
24 35
25 26
25 27
26 56
27 28
28 29
29 30
30 31
31 32
32 33
33 34
34 36
35 46
36 37
37 38
38 39
39 40
40 41
41 42
42 43
43 44
44 45
44 16
45 47
46 57
47 48
48 49
48 53
49 50
50 51
51 52
52 56
53 54
54 55
55 56
56 58
57 59
59 60
60 61
61 3
61 6
